269,107
425,323
307,596
926,887
704,554
609,458
868,501
858,434
914,173
755,178
736,235
681,376
672,347
663,349
474,374
231,406
296,345
491,32
681,196
606,-68
491,32
342,67
296,345
681,586
681,616
822,600
1001,569
681,586
786,551
704,554
539,452
681,766
838,891
820,833
868,501
765,-127
672,347
560,494
510,351
474,374
591,406
858,434
921,284
914,173
742,21
755,178
681,376
540,600
381,406
